(set-logic QF_S)
(declare-fun var0 () String)
(declare-fun var1 () String)
(declare-fun var2 () String)
(declare-fun var3 () String)
(declare-fun var4 () String)
(declare-fun var5 () String)
(declare-fun var6 () String)
(declare-fun var7 () String)
(declare-fun var8 () String)
(declare-fun var9 () String)
(declare-fun var10 () String)
(declare-fun var11 () String)
(declare-fun var12 () String)
(declare-fun var13 () String)
(declare-fun var14 () String)
(declare-fun var15 () String)
(declare-fun var16 () String)
(declare-fun var17 () String)
(declare-fun var18 () String)
(declare-fun var19 () String)
(declare-fun var20 () String)
(declare-fun var21 () String)
(declare-fun var22 () String)
(declare-fun var23 () String)
(declare-fun var24 () String)
(declare-fun var25 () String)
(declare-fun var26 () String)
(declare-fun var27 () String)
(declare-fun var28 () String)
(declare-fun var29 () String)
(declare-fun var30 () String)
(declare-fun var31 () String)
(declare-fun var32 () String)
(declare-fun var33 () String)
(declare-fun var34 () String)
(declare-fun var35 () String)
(declare-fun var36 () String)
(declare-fun var37 () String)
(declare-fun var38 () String)
(declare-fun var39 () String)
(declare-fun var40 () String)
(declare-fun var41 () String)
(declare-fun var42 () String)
(declare-fun var43 () String)
(declare-fun var44 () String)
(declare-fun var45 () String)
(declare-fun var46 () String)
(declare-fun var47 () String)
(declare-fun var48 () String)
(declare-fun var49 () String)
(declare-fun var50 () String)
(declare-fun var51 () String)
(declare-fun var52 () String)
(declare-fun var53 () String)
(declare-fun var54 () String)
(declare-fun var55 () String)
(declare-fun var56 () String)
(declare-fun var57 () String)
(declare-fun var58 () String)
(declare-fun var59 () String)
(declare-fun var60 () String)
(assert (= var0 (str.++ var1 var2)))
(assert (= var2 (str.++ var3 var4)))
(assert (= var4 (str.++ var5 var6)))
(assert (= var6 (str.++ var7 var8)))
(assert (= var8 (str.++ var9 var10)))
(assert (= var10 (str.++ var11 var12)))
(assert (= var12 (str.++ var13 var14)))
(assert (= var14 (str.++ var15 var16)))
(assert (= var16 (str.++ var17 var18)))
(assert (= var18 (str.++ var19 var20)))
(assert (= var20 (str.++ var21 var22)))
(assert (= var22 (str.++ var23 var24)))
(assert (= var24 (str.++ var25 var26)))
(assert (= var26 (str.++ var27 var28)))
(assert (= var28 (str.++ var29 var30)))
(assert (= var30 (str.++ var31 var32)))
(assert (= var32 (str.++ var33 var34)))
(assert (= var34 (str.++ var35 var36)))
(assert (= var36 (str.++ var37 var38)))
(assert (= var38 (str.++ var39 var40)))
(assert (= var40 (str.++ var41 var42)))
(assert (= var42 (str.++ var43 var44)))
(assert (= var44 (str.++ var45 var46)))
(assert (= var46 (str.++ var47 var48)))
(assert (= var48 (str.++ var49 var50)))
(assert (= var50 (str.++ var51 var52)))
(assert (= var52 (str.++ var53 var54)))
(assert (= var54 (str.++ var55 var56)))
(assert (= var56 (str.++ var57 var58)))
(assert (= var58 (str.++ var59 var60)))
(assert (= var0 "solution"))
(assert (= "(" (str.at var46 994)))
(assert (= "(" (str.at var38 375)))
(assert (= "y" (str.at var28 431)))
(assert (= "l" (str.at var44 473)))
(assert (= "(" (str.at var2 643)))
(assert (= "@" (str.at var31 399)))
(assert (= "J" (str.at var44 247)))
(assert (= "+" (str.at var27 752)))
(assert (= "M" (str.at var28 657)))
(assert (= "Z" (str.at var35 556)))
(assert (= "p" (str.at var50 461)))
(assert (= "&" (str.at var42 264)))
(assert (= "W" (str.at var53 420)))
(assert (= "{" (str.at var50 364)))
(assert (= "+" (str.at var23 631)))
(assert (= "P" (str.at var42 916)))
(assert (= "s" (str.at var4 219)))
(assert (= ";" (str.at var2 135)))
(assert (= "`" (str.at var19 786)))
(assert (= "X" (str.at var28 5)))
(assert (= "+" (str.at var40 532)))
(assert (= "/" (str.at var21 578)))
(assert (= "b" (str.at var56 335)))
(assert (= "y" (str.at var39 812)))
(assert (= "T" (str.at var5 736)))
(assert (= "}" (str.at var54 271)))
(assert (= "p" (str.at var51 209)))
(assert (= "." (str.at var30 374)))
(assert (= "#" (str.at var37 676)))
(assert (= "Q" (str.at var26 95)))
(assert (= "|" (str.at var44 428)))
(assert (= ">" (str.at var18 630)))
(assert (= "P" (str.at var5 889)))
(assert (= "J" (str.at var30 251)))
(assert (= "\\" (str.at var22 812)))
(assert (= "j" (str.at var47 610)))
(assert (= "i" (str.at var12 845)))
(assert (= "9" (str.at var18 833)))
(assert (= "`" (str.at var4 441)))
(assert (= "N" (str.at var49 833)))
(assert (= "1" (str.at var47 94)))
(assert (= "Q" (str.at var4 653)))
(assert (= "|" (str.at var25 377)))
(assert (= "c" (str.at var35 230)))
(assert (= "z" (str.at var24 678)))
(assert (= "I" (str.at var18 952)))
(assert (= "q" (str.at var28 690)))
(assert (= "?" (str.at var39 180)))
(assert (= "z" (str.at var23 216)))
(assert (= "4" (str.at var22 926)))
(assert (= "~" (str.at var35 878)))
(assert (= "?" (str.at var5 982)))
(assert (= "b" (str.at var37 524)))
(assert (= "E" (str.at var24 602)))
(assert (= "m" (str.at var33 206)))
(assert (= "e" (str.at var39 347)))
(assert (= "<" (str.at var37 2)))
(assert (= "#" (str.at var21 886)))
(assert (= "." (str.at var33 226)))
(assert (= "p" (str.at var5 629)))
(assert (= "Y" (str.at var10 250)))
(assert (= "5" (str.at var34 259)))
(assert (= "H" (str.at var4 155)))
(assert (= "4" (str.at var32 24)))
(assert (= "Y" (str.at var44 285)))
(assert (= "3" (str.at var44 659)))
(assert (= "+" (str.at var0 450)))
(assert (= ";" (str.at var53 246)))
(assert (= "4" (str.at var53 806)))
(assert (= "l" (str.at var50 972)))
(assert (= "-" (str.at var54 4)))
(assert (= "4" (str.at var27 398)))
(assert (= "<" (str.at var9 353)))
(assert (= "(" (str.at var44 498)))
(assert (= "g" (str.at var23 827)))
(assert (= ";" (str.at var18 171)))
(assert (= "S" (str.at var45 458)))
(assert (= "Z" (str.at var19 108)))
(assert (= "!" (str.at var18 457)))
(assert (= "4" (str.at var45 122)))
(assert (= "M" (str.at var16 129)))
(assert (= "|" (str.at var37 522)))
(assert (= "H" (str.at var25 25)))
(assert (= "I" (str.at var34 462)))
(assert (= "'" (str.at var28 320)))
(assert (= "e" (str.at var28 279)))
(assert (= "x" (str.at var8 487)))
(assert (= "%" (str.at var26 779)))
(assert (= "y" (str.at var23 496)))
(assert (= "2" (str.at var57 683)))
(assert (= "$" (str.at var24 240)))
(assert (= "q" (str.at var31 205)))
(assert (= "P" (str.at var59 181)))
(assert (= "S" (str.at var49 867)))
(assert (= "1" (str.at var32 463)))
(assert (= "A" (str.at var23 287)))
(assert (= "c" (str.at var28 934)))
(assert (= "k" (str.at var48 178)))
(assert (= ";" (str.at var17 259)))
(assert (= "o" (str.at var16 405)))
(assert (= "e" (str.at var20 708)))
(assert (= "s" (str.at var11 873)))
(assert (= "8" (str.at var27 708)))
(assert (= "?" (str.at var3 670)))
(assert (= "v" (str.at var60 436)))
(assert (= "5" (str.at var53 944)))
(assert (= "K" (str.at var54 153)))
(assert (= "F" (str.at var47 136)))
(assert (= "i" (str.at var25 944)))
(assert (= "{" (str.at var35 852)))
(assert (= "q" (str.at var46 461)))
(assert (= "$" (str.at var7 762)))
(assert (= "[" (str.at var10 668)))
(assert (= "Y" (str.at var37 646)))
(assert (= "5" (str.at var40 430)))
(assert (= "1" (str.at var43 722)))
(assert (= "v" (str.at var3 841)))
(assert (= "K" (str.at var44 984)))
(assert (= "R" (str.at var32 837)))
(assert (= "g" (str.at var26 364)))
(assert (= "b" (str.at var29 494)))
(assert (= "S" (str.at var40 978)))
(assert (= "$" (str.at var0 768)))
(assert (= "%" (str.at var26 638)))
(assert (= "B" (str.at var34 599)))
(assert (= "G" (str.at var49 257)))
(assert (= "N" (str.at var59 212)))
(assert (= "l" (str.at var56 729)))
(assert (= ":" (str.at var12 248)))
(assert (= "e" (str.at var54 977)))
(assert (= "m" (str.at var8 283)))
(assert (= "<" (str.at var1 703)))
(assert (= "l" (str.at var25 540)))
(assert (= ">" (str.at var38 27)))
(assert (= "~" (str.at var35 828)))
(assert (= "!" (str.at var20 630)))
(assert (= ")" (str.at var19 871)))
(assert (= "s" (str.at var3 93)))
(assert (= ")" (str.at var41 494)))
(assert (= "'" (str.at var53 796)))
(assert (= "o" (str.at var40 704)))
(assert (= "S" (str.at var14 903)))
(assert (= "*" (str.at var41 195)))
(assert (= "7" (str.at var60 613)))
(assert (= "u" (str.at var20 850)))
(assert (= "1" (str.at var42 203)))
(assert (= "Q" (str.at var3 751)))
(assert (= "~" (str.at var3 981)))
(assert (= "2" (str.at var60 947)))
(assert (= "*" (str.at var5 765)))
(assert (= "B" (str.at var43 329)))
(assert (= "." (str.at var31 470)))
(assert (= "@" (str.at var28 499)))
(assert (= "M" (str.at var35 206)))
(assert (= "y" (str.at var11 658)))
(assert (= "q" (str.at var10 880)))
(assert (= "j" (str.at var40 37)))
(assert (= "T" (str.at var29 88)))
(assert (= "y" (str.at var24 729)))
(assert (= "/" (str.at var56 998)))
(assert (= "P" (str.at var59 715)))
(assert (= "k" (str.at var24 996)))
(assert (= "u" (str.at var33 432)))
(assert (= "Z" (str.at var49 770)))
(assert (= "2" (str.at var5 771)))
(assert (= "L" (str.at var40 558)))
(assert (= "_" (str.at var51 470)))
(assert (= "T" (str.at var4 128)))
(assert (= "^" (str.at var21 689)))
(assert (= "|" (str.at var2 447)))
(assert (= "{" (str.at var33 437)))
(assert (= "=" (str.at var6 538)))
(assert (= "M" (str.at var1 398)))
(assert (= "`" (str.at var8 7)))
(assert (= "V" (str.at var42 904)))
(assert (= "%" (str.at var26 1000)))
(assert (= "\\" (str.at var24 365)))
(assert (= "-" (str.at var44 137)))
(assert (= "," (str.at var40 152)))
(assert (= "A" (str.at var19 257)))
(assert (= "n" (str.at var37 397)))
(assert (= "F" (str.at var34 849)))
(assert (= "~" (str.at var56 403)))
(assert (= "P" (str.at var19 837)))
(assert (= "}" (str.at var43 342)))
(assert (= "#" (str.at var60 822)))
(assert (= "M" (str.at var8 330)))
(assert (= "2" (str.at var45 184)))
(assert (= "l" (str.at var7 877)))
(assert (= "r" (str.at var41 564)))
(assert (= "j" (str.at var25 368)))
(assert (= "_" (str.at var37 903)))
(assert (= "i" (str.at var59 669)))
(assert (= "B" (str.at var45 428)))
(assert (= "_" (str.at var51 350)))
(assert (= "^" (str.at var7 883)))
(assert (= "3" (str.at var16 546)))
(assert (= "[" (str.at var45 827)))
(assert (= "." (str.at var3 565)))
(assert (= "4" (str.at var50 677)))
(assert (= "|" (str.at var59 577)))
(assert (= "W" (str.at var4 37)))
(assert (= ":" (str.at var7 185)))
(assert (= "&" (str.at var53 201)))
(assert (= "H" (str.at var53 767)))
(assert (= "*" (str.at var29 295)))
(assert (= "g" (str.at var35 139)))
(assert (= """" (str.at var21 734)))
(assert (= "S" (str.at var14 927)))
(assert (= "p" (str.at var45 979)))
(assert (= "!" (str.at var32 84)))
(assert (= "g" (str.at var59 382)))
(assert (= "n" (str.at var34 32)))
(assert (= "+" (str.at var17 242)))
(assert (= "v" (str.at var3 582)))
(assert (= "=" (str.at var49 227)))
(assert (= ">" (str.at var52 608)))
(assert (= "m" (str.at var54 581)))
(assert (= "d" (str.at var48 249)))
(assert (= "3" (str.at var33 881)))
(assert (= "}" (str.at var32 171)))
(assert (= ";" (str.at var3 417)))
(assert (= "u" (str.at var45 43)))
(assert (= "y" (str.at var12 472)))
(assert (= "+" (str.at var52 107)))
(assert (= "," (str.at var53 378)))
(assert (= "6" (str.at var52 817)))
(assert (= "@" (str.at var58 872)))
(assert (= "+" (str.at var8 783)))
(assert (= "K" (str.at var20 8)))
(assert (= "p" (str.at var44 673)))
(assert (= "O" (str.at var22 819)))
(assert (= "R" (str.at var1 522)))
(assert (= "Z" (str.at var56 426)))
(assert (= "=" (str.at var3 769)))
(assert (= "=" (str.at var34 577)))
(assert (= "Q" (str.at var40 575)))
(assert (= "F" (str.at var0 617)))
(assert (= "_" (str.at var19 477)))
(assert (= "U" (str.at var52 779)))
(assert (= "O" (str.at var55 602)))
(assert (= "1" (str.at var10 773)))
(assert (= "C" (str.at var47 973)))
(assert (= "E" (str.at var51 206)))
(assert (= "X" (str.at var47 425)))
(assert (= "v" (str.at var4 292)))
(assert (= "J" (str.at var7 679)))
(assert (= "l" (str.at var19 154)))
(assert (= "o" (str.at var21 591)))
(assert (= "O" (str.at var59 636)))
(assert (= "I" (str.at var15 411)))
(assert (= "2" (str.at var31 1)))
(assert (= "5" (str.at var20 276)))
(assert (= "L" (str.at var22 230)))
(assert (= ":" (str.at var2 900)))
(assert (= "O" (str.at var25 628)))
(assert (= "n" (str.at var59 653)))
(assert (= "X" (str.at var41 650)))
(assert (= "B" (str.at var16 965)))
(assert (= "K" (str.at var57 20)))
(assert (= "<" (str.at var8 87)))
(assert (= "g" (str.at var55 56)))
(assert (= "h" (str.at var53 367)))
(assert (= "9" (str.at var24 953)))
(assert (= "R" (str.at var6 268)))
(assert (= "^" (str.at var24 82)))
(assert (= "=" (str.at var44 66)))
(assert (= "U" (str.at var45 110)))
(assert (= "v" (str.at var57 667)))
(assert (= "4" (str.at var42 488)))
(assert (= "Z" (str.at var11 41)))
(assert (= ";" (str.at var42 944)))
(assert (= "w" (str.at var50 190)))
(assert (= "A" (str.at var17 174)))
(assert (= "+" (str.at var0 685)))
(assert (= "s" (str.at var32 291)))
(assert (= "b" (str.at var19 500)))
(assert (= "5" (str.at var45 853)))
(assert (= "M" (str.at var0 992)))
(assert (= "]" (str.at var57 76)))
(assert (= "Q" (str.at var60 557)))
(assert (= "o" (str.at var11 761)))
(assert (= "," (str.at var14 253)))
(assert (= "F" (str.at var60 635)))
(assert (= "G" (str.at var57 95)))
(assert (= ")" (str.at var35 611)))
(assert (= "G" (str.at var36 131)))
(assert (= "3" (str.at var35 237)))
(assert (= "w" (str.at var37 678)))
(assert (= "<" (str.at var57 408)))
(assert (= "/" (str.at var15 469)))
(assert (= "<" (str.at var9 345)))
(assert (= "e" (str.at var13 488)))
(assert (= "A" (str.at var58 838)))
(assert (= "%" (str.at var30 48)))
(assert (= "F" (str.at var32 348)))
(assert (= "~" (str.at var16 260)))
(assert (= "W" (str.at var14 129)))
(assert (= "z" (str.at var20 584)))
(assert (= "#" (str.at var14 6)))
(assert (= "~" (str.at var44 857)))
(assert (= "\\" (str.at var32 453)))
(assert (= "'" (str.at var28 840)))
(assert (= "I" (str.at var50 623)))
(assert (= "4" (str.at var51 466)))
(assert (= "}" (str.at var29 482)))
(assert (= "b" (str.at var7 655)))
(assert (= "B" (str.at var40 606)))
(assert (= "U" (str.at var33 212)))
(assert (= "J" (str.at var34 444)))
(assert (= "*" (str.at var52 898)))
(assert (= "t" (str.at var5 920)))
(assert (= "w" (str.at var59 472)))
(assert (= "}" (str.at var2 770)))
(assert (= "." (str.at var14 389)))
(assert (= "X" (str.at var54 146)))
(assert (= "T" (str.at var9 670)))
(assert (= "Y" (str.at var6 46)))
(assert (= "N" (str.at var4 710)))
(assert (= "j" (str.at var31 486)))
(assert (= "p" (str.at var28 699)))
(assert (= "b" (str.at var31 988)))
(assert (= ">" (str.at var1 6)))
(assert (= "E" (str.at var28 832)))
(assert (= "J" (str.at var41 667)))
(assert (= "W" (str.at var42 346)))
(assert (= "9" (str.at var42 767)))
(assert (= "+" (str.at var24 322)))
(assert (= "O" (str.at var13 769)))
(assert (= "O" (str.at var5 917)))
(assert (= "5" (str.at var16 969)))
(assert (= "d" (str.at var33 85)))
(assert (= "!" (str.at var3 814)))
(assert (= "m" (str.at var31 950)))
(assert (= "D" (str.at var57 17)))
(assert (= "n" (str.at var20 84)))
(assert (= "g" (str.at var24 113)))
(assert (= "U" (str.at var23 37)))
(assert (= "i" (str.at var60 453)))
(assert (= "r" (str.at var46 622)))
(assert (= "b" (str.at var58 887)))
(assert (= "8" (str.at var26 801)))
(assert (= "G" (str.at var44 45)))
(assert (= "k" (str.at var53 869)))
(assert (= "Q" (str.at var25 274)))
(assert (= "r" (str.at var50 167)))
(assert (= "!" (str.at var53 192)))
(assert (= "@" (str.at var14 23)))
(assert (= "x" (str.at var33 979)))
(assert (= "D" (str.at var35 490)))
(assert (= "c" (str.at var36 926)))
(assert (= "F" (str.at var40 347)))
(assert (= "i" (str.at var37 948)))
(assert (= "M" (str.at var6 195)))
(assert (= "C" (str.at var8 661)))
(assert (= "^" (str.at var1 153)))
(assert (= "s" (str.at var45 780)))
(assert (= ">" (str.at var20 743)))
(assert (= "P" (str.at var3 356)))
(assert (= ";" (str.at var7 719)))
(assert (= "f" (str.at var25 379)))
(assert (= "{" (str.at var8 105)))
(assert (= "s" (str.at var45 464)))
(assert (= "3" (str.at var31 159)))
(assert (= "Q" (str.at var50 79)))
(assert (= "y" (str.at var31 734)))
(assert (= "3" (str.at var27 199)))
(assert (= "," (str.at var35 327)))
(assert (= "m" (str.at var10 91)))
(assert (= "r" (str.at var35 560)))
(assert (= "\\" (str.at var24 137)))
(assert (= ")" (str.at var28 60)))
(assert (= "^" (str.at var36 240)))
(assert (= "A" (str.at var20 232)))
(assert (= "V" (str.at var12 787)))
(assert (= "#" (str.at var55 277)))
(assert (= "X" (str.at var28 943)))
(assert (= "m" (str.at var30 35)))
(assert (= "G" (str.at var6 485)))
(assert (= "?" (str.at var21 953)))
(assert (= "P" (str.at var9 891)))
(assert (= "k" (str.at var25 420)))
(assert (= "K" (str.at var14 526)))
(assert (= "L" (str.at var46 578)))
(assert (= "-" (str.at var22 489)))
(assert (= "q" (str.at var48 781)))
(assert (= "8" (str.at var34 272)))
(assert (= "?" (str.at var12 479)))
(assert (= ")" (str.at var50 504)))
(assert (= "i" (str.at var14 560)))
(assert (= "/" (str.at var52 58)))
(assert (= "[" (str.at var27 876)))
(assert (= "(" (str.at var22 63)))
(assert (= "E" (str.at var42 68)))
(assert (= "n" (str.at var1 823)))
(assert (= "-" (str.at var24 694)))
(assert (= "2" (str.at var16 67)))
(assert (= "9" (str.at var38 371)))
(assert (= ";" (str.at var39 560)))
(assert (= "h" (str.at var41 489)))
(assert (= "y" (str.at var36 777)))
(assert (= "2" (str.at var54 628)))
(assert (= "r" (str.at var34 660)))
(assert (= "&" (str.at var13 674)))
(assert (= "0" (str.at var14 203)))
(assert (= "V" (str.at var18 88)))
(assert (= "V" (str.at var52 883)))
(assert (= "H" (str.at var43 139)))
(assert (= ";" (str.at var46 201)))
(assert (= "c" (str.at var59 966)))
(assert (= "p" (str.at var3 402)))
(assert (= "A" (str.at var38 722)))
(assert (= "{" (str.at var14 633)))
(assert (= "t" (str.at var50 780)))
(assert (= "," (str.at var34 457)))
(assert (= "4" (str.at var56 468)))
(assert (= "f" (str.at var9 989)))
(assert (= "s" (str.at var12 189)))
(assert (= "1" (str.at var15 857)))
(assert (= "H" (str.at var26 925)))
(assert (= "Z" (str.at var37 763)))
(assert (= "+" (str.at var36 690)))
(assert (= "_" (str.at var35 850)))
(assert (= "O" (str.at var11 278)))
(assert (= "Y" (str.at var27 301)))
(assert (= "Z" (str.at var1 910)))
(assert (= "u" (str.at var46 875)))
(assert (= "7" (str.at var31 468)))
(assert (= "l" (str.at var57 116)))
(assert (= "!" (str.at var37 442)))
(assert (= ">" (str.at var22 963)))
(assert (= "5" (str.at var33 893)))
(assert (= "T" (str.at var48 655)))
(assert (= "v" (str.at var16 876)))
(assert (= "A" (str.at var38 237)))
(assert (= ">" (str.at var32 272)))
(assert (= "," (str.at var51 661)))
(assert (= "W" (str.at var13 790)))
(assert (= "1" (str.at var9 730)))
(assert (= "a" (str.at var48 26)))
(assert (= "X" (str.at var7 695)))
(assert (= "@" (str.at var50 861)))
(assert (= "L" (str.at var13 464)))
(assert (= "O" (str.at var44 640)))
(assert (= "U" (str.at var14 861)))
(assert (= "c" (str.at var46 223)))
(assert (= "@" (str.at var11 160)))
(assert (= "?" (str.at var22 416)))
(assert (= "B" (str.at var48 200)))
(assert (= ")" (str.at var14 817)))
(assert (= "9" (str.at var7 208)))
(assert (= "b" (str.at var0 402)))
(assert (= "\\" (str.at var48 859)))
(assert (= "8" (str.at var44 450)))
(assert (= "J" (str.at var39 52)))
(assert (= "h" (str.at var38 967)))
(assert (= "O" (str.at var18 72)))
(assert (= "@" (str.at var35 719)))
(assert (= "u" (str.at var27 599)))
(assert (= "a" (str.at var20 247)))
(assert (= "n" (str.at var48 409)))
(assert (= "5" (str.at var25 930)))
(assert (= "5" (str.at var6 534)))
(assert (= "f" (str.at var24 68)))
(assert (= "Y" (str.at var9 4)))
(assert (= "}" (str.at var43 697)))
(assert (= "!" (str.at var21 335)))
(assert (= ";" (str.at var6 411)))
(assert (= "O" (str.at var47 942)))
(assert (= ":" (str.at var5 1000)))
(assert (= "@" (str.at var22 172)))
(assert (= "N" (str.at var51 733)))
(assert (= "{" (str.at var46 452)))
(assert (= "@" (str.at var39 357)))
(assert (= """" (str.at var24 177)))
(assert (= "J" (str.at var50 886)))
(assert (= "o" (str.at var6 472)))
(assert (= "B" (str.at var10 464)))
(assert (= ")" (str.at var37 266)))
(assert (= "$" (str.at var10 365)))
(assert (= "B" (str.at var44 943)))
(assert (= "h" (str.at var13 724)))
(assert (= "3" (str.at var50 647)))
(assert (= "9" (str.at var51 516)))
(assert (= "{" (str.at var34 893)))
(assert (= "v" (str.at var37 677)))
(assert (= "B" (str.at var35 58)))
(assert (= "'" (str.at var15 19)))
(assert (= "6" (str.at var36 197)))
(assert (= "~" (str.at var25 895)))
(assert (= "7" (str.at var26 487)))
(assert (= "*" (str.at var18 194)))
(assert (= "_" (str.at var51 666)))
(assert (= "`" (str.at var40 791)))
(assert (= "1" (str.at var43 916)))
(assert (= "y" (str.at var6 299)))
(assert (= "u" (str.at var2 989)))
(assert (= "," (str.at var43 977)))
(assert (= "B" (str.at var55 894)))
(assert (= "j" (str.at var6 516)))
(assert (= "\\" (str.at var7 977)))
(assert (= "." (str.at var12 49)))
(assert (= "*" (str.at var37 9)))
(assert (= "V" (str.at var51 609)))
(assert (= "Q" (str.at var37 305)))
(assert (= "#" (str.at var56 754)))
(assert (= "," (str.at var31 5)))
(assert (= "Y" (str.at var60 508)))
(assert (= "<" (str.at var10 514)))
(assert (= "R" (str.at var1 867)))
(assert (= "}" (str.at var1 286)))
(assert (= "q" (str.at var47 657)))
(assert (= "&" (str.at var29 572)))
(assert (= "Y" (str.at var50 790)))
(assert (= "Q" (str.at var46 467)))
(assert (= "g" (str.at var28 710)))
(assert (= """" (str.at var43 827)))
(assert (= "X" (str.at var14 675)))
(assert (= "b" (str.at var43 286)))
(assert (= "H" (str.at var41 31)))
(assert (= "6" (str.at var45 187)))
(assert (= "R" (str.at var12 925)))
(assert (= "=" (str.at var45 627)))
(assert (= "S" (str.at var22 980)))
(assert (= "@" (str.at var57 639)))
(assert (= "^" (str.at var1 5)))
(assert (= "9" (str.at var56 158)))
(assert (= ">" (str.at var12 985)))
(assert (= "X" (str.at var55 321)))
(assert (= "(" (str.at var44 866)))
(assert (= "l" (str.at var7 940)))
(assert (= "r" (str.at var9 76)))
(assert (= "D" (str.at var33 897)))
(assert (= "R" (str.at var23 336)))
(assert (= "F" (str.at var12 982)))
(assert (= "y" (str.at var44 741)))
(assert (= ">" (str.at var0 531)))
(assert (= "\\" (str.at var17 906)))
(assert (= "$" (str.at var40 157)))
(assert (= "[" (str.at var47 993)))
(assert (= "|" (str.at var44 401)))
(assert (= "U" (str.at var22 930)))
(assert (= "P" (str.at var31 61)))
(assert (= "z" (str.at var30 207)))
(assert (= ":" (str.at var11 640)))
(assert (= "5" (str.at var32 449)))
(assert (= "]" (str.at var35 257)))
(assert (= "j" (str.at var34 229)))
(assert (= "U" (str.at var8 111)))
(assert (= "*" (str.at var53 11)))
(assert (= "K" (str.at var59 449)))
(assert (= "m" (str.at var32 707)))
(assert (= ">" (str.at var1 427)))
(assert (= "~" (str.at var4 639)))
(assert (= "(" (str.at var12 556)))
(assert (= "j" (str.at var42 616)))
(assert (= "Y" (str.at var5 412)))
(assert (= "b" (str.at var42 175)))
(assert (= "H" (str.at var8 926)))
(assert (= "Z" (str.at var24 842)))
(assert (= "t" (str.at var38 447)))
(assert (= "k" (str.at var56 564)))
(assert (= "C" (str.at var56 736)))
(assert (= "k" (str.at var3 46)))
(assert (= "L" (str.at var49 995)))
(assert (= "7" (str.at var43 958)))
(assert (= "u" (str.at var23 60)))
(assert (= "1" (str.at var59 860)))
(assert (= "Z" (str.at var55 816)))
(assert (= "*" (str.at var0 213)))
(assert (= "E" (str.at var11 92)))
(assert (= "<" (str.at var5 370)))
(assert (= "w" (str.at var10 300)))
(assert (= "/" (str.at var28 995)))
(assert (= "*" (str.at var37 270)))
(assert (= "8" (str.at var42 562)))
(assert (= ":" (str.at var53 784)))
(assert (= "B" (str.at var0 996)))
(assert (= "}" (str.at var38 695)))
(assert (= "`" (str.at var22 626)))
(assert (= "!" (str.at var43 714)))
(assert (= "D" (str.at var50 946)))
(assert (= "2" (str.at var36 883)))
(assert (= "{" (str.at var14 95)))
(assert (= "-" (str.at var35 144)))
(assert (= "8" (str.at var52 73)))
(assert (= "E" (str.at var51 956)))
(assert (= "!" (str.at var58 719)))
(assert (= ";" (str.at var1 975)))
(assert (= "$" (str.at var59 665)))
(assert (= "L" (str.at var8 404)))
(assert (= "h" (str.at var39 213)))
(assert (= "O" (str.at var22 505)))
(assert (= "1" (str.at var59 974)))
(assert (= "V" (str.at var20 408)))
(assert (= "l" (str.at var45 131)))
(assert (= "?" (str.at var5 866)))
(assert (= "e" (str.at var5 618)))
(assert (= "$" (str.at var16 688)))
(assert (= "w" (str.at var58 749)))
(assert (= "B" (str.at var56 541)))
(assert (= "c" (str.at var35 508)))
(assert (= "s" (str.at var26 281)))
(assert (= "|" (str.at var53 718)))
(assert (= "r" (str.at var7 289)))
(assert (= "L" (str.at var37 225)))
(assert (= ">" (str.at var60 400)))
(assert (= "[" (str.at var7 481)))
(assert (= "a" (str.at var27 374)))
(assert (= "." (str.at var41 866)))
(assert (= "_" (str.at var13 575)))
(assert (= "~" (str.at var39 748)))
(assert (= "X" (str.at var55 645)))
(assert (= "i" (str.at var35 128)))
(assert (= "g" (str.at var34 310)))
(assert (= "3" (str.at var29 614)))
(assert (= "W" (str.at var28 434)))
(assert (= ">" (str.at var34 121)))
(assert (= "e" (str.at var6 954)))
(assert (= "d" (str.at var55 996)))
(assert (= "t" (str.at var46 353)))
(assert (= "i" (str.at var12 647)))
(assert (= "u" (str.at var44 944)))
(assert (= ")" (str.at var2 639)))
(assert (= "6" (str.at var34 352)))
(assert (= "2" (str.at var4 191)))
(assert (= "j" (str.at var47 37)))
(assert (= "E" (str.at var36 97)))
(assert (= "'" (str.at var24 498)))
(assert (= "P" (str.at var18 757)))
(assert (= "5" (str.at var10 733)))
(assert (= "N" (str.at var1 534)))
(assert (= "F" (str.at var45 775)))
(assert (= "e" (str.at var59 344)))
(assert (= "K" (str.at var24 488)))
(assert (= "C" (str.at var45 793)))
(assert (= "@" (str.at var22 166)))
(assert (= "a" (str.at var54 998)))
(assert (= "8" (str.at var51 888)))
(assert (= "#" (str.at var25 660)))
(assert (= "M" (str.at var26 849)))
(assert (= "H" (str.at var0 479)))
(assert (= "V" (str.at var46 860)))
(assert (= ">" (str.at var60 138)))
(assert (= "Q" (str.at var60 961)))
(assert (= "6" (str.at var12 323)))
(assert (= "A" (str.at var1 731)))
(assert (= "H" (str.at var49 124)))
(assert (= "v" (str.at var53 624)))
(assert (= "N" (str.at var43 198)))
(assert (= "l" (str.at var18 926)))
(assert (= "=" (str.at var23 394)))
(assert (= "~" (str.at var40 661)))
(assert (= "D" (str.at var1 456)))
(assert (= "Q" (str.at var30 647)))
(assert (= "&" (str.at var38 968)))
(assert (= "P" (str.at var5 734)))
(assert (= "a" (str.at var22 583)))
(assert (= "5" (str.at var41 850)))
(assert (= "U" (str.at var3 946)))
(assert (= "v" (str.at var2 140)))
(assert (= "~" (str.at var58 558)))
(assert (= "V" (str.at var45 213)))
(assert (= "!" (str.at var29 875)))
(assert (= "n" (str.at var57 107)))
(assert (= "}" (str.at var36 906)))
(assert (= "%" (str.at var38 775)))
(assert (= "7" (str.at var9 33)))
(assert (= "U" (str.at var48 209)))
(assert (= "y" (str.at var29 936)))
(assert (= "T" (str.at var55 619)))
(assert (= "j" (str.at var51 556)))
(assert (= "n" (str.at var51 997)))
(assert (= "F" (str.at var46 435)))
(assert (= "c" (str.at var16 863)))
(assert (= "}" (str.at var22 25)))
(assert (= ":" (str.at var20 227)))
(assert (= "H" (str.at var10 727)))
(assert (= "t" (str.at var6 100)))
(assert (= "l" (str.at var51 425)))
(assert (= "H" (str.at var32 989)))
(assert (= "5" (str.at var9 552)))
(assert (= "f" (str.at var58 435)))
(assert (= "R" (str.at var44 22)))
(assert (= "h" (str.at var33 191)))
(assert (= "Z" (str.at var28 259)))
(assert (= "X" (str.at var30 496)))
(assert (= "B" (str.at var39 678)))
(assert (= ";" (str.at var24 24)))
(assert (= "^" (str.at var24 737)))
(assert (= ")" (str.at var24 163)))
(assert (= "S" (str.at var8 418)))
(assert (= "Z" (str.at var16 197)))
(assert (= "j" (str.at var42 793)))
(assert (= "[" (str.at var19 410)))
(assert (= "n" (str.at var53 208)))
(assert (= "=" (str.at var23 557)))
(assert (= "&" (str.at var37 291)))
(assert (= "#" (str.at var37 71)))
(assert (= "c" (str.at var2 721)))
(assert (= "R" (str.at var8 113)))
(assert (= "e" (str.at var6 23)))
(assert (= "R" (str.at var10 580)))
(assert (= "a" (str.at var11 238)))
(assert (= "|" (str.at var57 901)))
(assert (= "N" (str.at var44 558)))
(assert (= "w" (str.at var19 587)))
(assert (= "i" (str.at var37 719)))
(assert (= "2" (str.at var11 933)))
(assert (= "f" (str.at var25 878)))
(assert (= "j" (str.at var12 244)))
(assert (= "<" (str.at var36 295)))
(assert (= "2" (str.at var3 788)))
(assert (= "+" (str.at var6 150)))
(assert (= ";" (str.at var26 179)))
(assert (= "5" (str.at var20 137)))
(assert (= "." (str.at var5 606)))
(assert (= "]" (str.at var3 517)))
(assert (= "U" (str.at var11 916)))
(assert (= "g" (str.at var11 31)))
(assert (= "6" (str.at var7 206)))
(assert (= "D" (str.at var55 291)))
(assert (= "@" (str.at var39 751)))
(assert (= "'" (str.at var54 339)))
(assert (= "=" (str.at var32 285)))
(assert (= "D" (str.at var5 202)))
(assert (= "g" (str.at var22 681)))
(assert (= "J" (str.at var56 983)))
(assert (= "S" (str.at var29 480)))
(assert (= "R" (str.at var18 469)))
(assert (= ":" (str.at var60 688)))
(assert (= "j" (str.at var41 418)))
(assert (= "a" (str.at var39 953)))
(assert (= "Z" (str.at var49 300)))
(assert (= "F" (str.at var23 519)))
(assert (= ")" (str.at var32 563)))
(assert (= "E" (str.at var3 376)))
(assert (= "_" (str.at var45 32)))
(assert (= "h" (str.at var10 510)))
(assert (= "4" (str.at var31 637)))
(assert (= "0" (str.at var14 57)))
(assert (= "0" (str.at var16 576)))
(assert (= "." (str.at var54 718)))
(assert (= "=" (str.at var5 742)))
(assert (= "5" (str.at var23 297)))
(assert (= "/" (str.at var48 363)))
(assert (= ">" (str.at var35 704)))
(assert (= "O" (str.at var20 648)))
(assert (= "U" (str.at var6 144)))
(assert (= "s" (str.at var30 206)))
(assert (= "%" (str.at var3 67)))
(assert (= "e" (str.at var34 884)))
(assert (= "O" (str.at var15 915)))
(assert (= "o" (str.at var17 786)))
(assert (= "X" (str.at var14 106)))
(assert (= "l" (str.at var32 829)))
(assert (= "f" (str.at var13 343)))
(assert (= "6" (str.at var16 762)))
(assert (= ">" (str.at var24 861)))
(assert (= "G" (str.at var40 879)))
(assert (= "-" (str.at var45 177)))
(assert (= "r" (str.at var49 766)))
(assert (= "-" (str.at var4 251)))
(assert (= "5" (str.at var0 43)))
(assert (= "`" (str.at var16 988)))
(assert (= "I" (str.at var57 195)))
(assert (= "z" (str.at var7 159)))
(assert (= "V" (str.at var30 139)))
(assert (= "d" (str.at var38 895)))
(assert (= "}" (str.at var9 75)))
(assert (= "#" (str.at var3 11)))
(assert (= "{" (str.at var43 525)))
(assert (= "/" (str.at var23 405)))
(assert (= "t" (str.at var55 469)))
(assert (= "I" (str.at var17 335)))
(assert (= "," (str.at var59 556)))
(assert (= "m" (str.at var35 253)))
(assert (= "q" (str.at var31 161)))
(assert (= "3" (str.at var43 814)))
(assert (= "M" (str.at var56 588)))
(assert (= "5" (str.at var36 15)))
(assert (= "`" (str.at var31 564)))
(assert (= "6" (str.at var52 777)))
(assert (= "b" (str.at var54 224)))
(assert (= "J" (str.at var13 298)))
(assert (= "z" (str.at var15 890)))
(assert (= "]" (str.at var56 493)))
(assert (= "k" (str.at var18 747)))
(assert (= ":" (str.at var47 216)))
(assert (= "!" (str.at var9 919)))
(assert (= "1" (str.at var22 655)))
(assert (= "U" (str.at var49 808)))
(assert (= "5" (str.at var14 930)))
(assert (= "y" (str.at var28 969)))
(assert (= "g" (str.at var32 225)))
(assert (= "P" (str.at var26 395)))
(assert (= "(" (str.at var32 2)))
(assert (= "^" (str.at var35 650)))
(assert (= "}" (str.at var10 60)))
(assert (= ";" (str.at var27 119)))
(assert (= "4" (str.at var35 674)))
(check-sat)